; SMT 2
(set-info :source "Generated by CBMC 5.10 (cbmc-5.10)")
(set-option :produce-models true)
(set-logic QF_AUFBV)

; find_symbols
(declare-fun |goto_symex::&92;guard#1| () Bool)
; convert
(define-fun |B0| () Bool |goto_symex::&92;guard#1|)

; convert
(define-fun |B1| () Bool |goto_symex::&92;guard#1|)

; convert
(define-fun |B2| () Bool |goto_symex::&92;guard#1|)

; convert
(define-fun |B3| () Bool (not |goto_symex::&92;guard#1|))

; find_symbols
(declare-fun |goto_symex::&92;guard#2| () Bool)
; convert
(define-fun |B4| () Bool (and (not |goto_symex::&92;guard#1|) |goto_symex::&92;guard#2|))

; convert
(define-fun |B5| () Bool (and (not |goto_symex::&92;guard#1|) |goto_symex::&92;guard#2|))

; convert
(define-fun |B6| () Bool (and (not |goto_symex::&92;guard#1|) (not |goto_symex::&92;guard#2|)))

; find_symbols
(declare-fun |goto_symex::&92;guard#3| () Bool)
; convert
(define-fun |B7| () Bool (and (not |goto_symex::&92;guard#1|) (not |goto_symex::&92;guard#2|) |goto_symex::&92;guard#3|))

; convert
(define-fun |B8| () Bool (and (not |goto_symex::&92;guard#1|) (not |goto_symex::&92;guard#2|) |goto_symex::&92;guard#3|))

; convert
(define-fun |B9| () Bool (and (not |goto_symex::&92;guard#1|) (not |goto_symex::&92;guard#2|) (not |goto_symex::&92;guard#3|)))

; find_symbols
(declare-fun |goto_symex::&92;guard#4| () Bool)
; convert
(define-fun |B10| () Bool (and (not |goto_symex::&92;guard#1|) (not |goto_symex::&92;guard#2|) (not |goto_symex::&92;guard#3|) |goto_symex::&92;guard#4|))

; convert
(define-fun |B11| () Bool (and (not |goto_symex::&92;guard#1|) (not |goto_symex::&92;guard#2|) (not |goto_symex::&92;guard#3|) |goto_symex::&92;guard#4|))

; convert
(define-fun |B12| () Bool (and (not |goto_symex::&92;guard#1|) (not |goto_symex::&92;guard#2|) (not |goto_symex::&92;guard#3|) (not |goto_symex::&92;guard#4|)))

; convert
(define-fun |B13| () Bool (not |goto_symex::&92;guard#1|))

; find_symbols
(declare-fun |goto_symex::&92;guard#5| () Bool)
; convert
(define-fun |B14| () Bool (and (not |goto_symex::&92;guard#1|) |goto_symex::&92;guard#5|))

; convert
(define-fun |B15| () Bool (and (not |goto_symex::&92;guard#1|) |goto_symex::&92;guard#5|))

; convert
(define-fun |B16| () Bool (and (not |goto_symex::&92;guard#1|) (not |goto_symex::&92;guard#5|)))

; find_symbols
(declare-fun |goto_symex::&92;guard#6| () Bool)
; convert
(define-fun |B17| () Bool (and (not |goto_symex::&92;guard#1|) (not |goto_symex::&92;guard#5|) |goto_symex::&92;guard#6|))

; convert
(define-fun |B18| () Bool (and (not |goto_symex::&92;guard#1|) (not |goto_symex::&92;guard#5|) |goto_symex::&92;guard#6|))

; convert
(define-fun |B19| () Bool (and (not |goto_symex::&92;guard#1|) (not |goto_symex::&92;guard#5|) (not |goto_symex::&92;guard#6|)))

; find_symbols
(declare-fun |goto_symex::&92;guard#7| () Bool)
; convert
(define-fun |B20| () Bool (and (not |goto_symex::&92;guard#1|) (not |goto_symex::&92;guard#5|) (not |goto_symex::&92;guard#6|) |goto_symex::&92;guard#7|))

; convert
(define-fun |B21| () Bool (and (not |goto_symex::&92;guard#1|) (not |goto_symex::&92;guard#5|) (not |goto_symex::&92;guard#6|) |goto_symex::&92;guard#7|))

; convert
(define-fun |B22| () Bool (and (not |goto_symex::&92;guard#1|) (not |goto_symex::&92;guard#5|) (not |goto_symex::&92;guard#6|) (not |goto_symex::&92;guard#7|)))

; set_to true (equal)
(define-fun |__CPROVER_dead_object#1| () (_ BitVec 64) (_ bv0 64))

; set_to true (equal)
(define-fun |__CPROVER_deallocated#1| () (_ BitVec 64) (_ bv0 64))

; set_to true (equal)
(define-fun |__CPROVER_malloc_is_new_array#1| () Bool false)

; set_to true (equal)
(define-fun |__CPROVER_malloc_object#1| () (_ BitVec 64) (_ bv0 64))

; set_to true (equal)
(define-fun |__CPROVER_malloc_size#1| () (_ BitVec 64) (_ bv0 64))

; set_to true (equal)
(define-fun |__CPROVER_memory_leak#1| () (_ BitVec 64) (_ bv0 64))

; set_to true (equal)
(define-fun |__CPROVER_next_thread_id#1| () (_ BitVec 64) (_ bv0 64))

; set_to true (equal)
(define-fun |__CPROVER_pipe_count#1| () (_ BitVec 32) (_ bv0 32))

; set_to true (equal)
(define-fun |__CPROVER_rounding_mode!0#1| () (_ BitVec 32) (_ bv0 32))

; set_to true (equal)
(define-fun |__CPROVER_thread_id!0#1| () (_ BitVec 64) (_ bv0 64))

; the following is a substitute for lambda i. x
(declare-fun array_of.0 () (Array (_ BitVec 64) (_ BitVec 1)))
; set_to true (equal)
(define-fun |__CPROVER_threads_exited#1| () (Array (_ BitVec 64) (_ BitVec 1)) array_of.0)

; find_symbols
(declare-fun |nondet_symex::nondet0| () (_ BitVec 32))
; set_to true (equal)
(define-fun |main::1::n!0@1#2| () (_ BitVec 32) |nondet_symex::nondet0|)

; set_to true (equal)
(define-fun |lib::n!0@1#1| () (_ BitVec 32) |main::1::n!0@1#2|)

; set_to true
(assert (= |goto_symex::&92;guard#1| (not (bvsge |lib::n!0@1#1| (_ bv0 32)))))

; set_to true (equal)
(define-fun |lib::1::ret_old!0@1#2| () (_ BitVec 32) (_ bv4294967295 32))

; set_to true (equal)
(define-fun |lib::1::ret_new!0@1#2| () (_ BitVec 32) (_ bv4294967295 32))

; find_symbols
(declare-fun |lib::1::ret_new!0@1#1| () (_ BitVec 32))
; set_to true (equal)
(define-fun |lib::1::ret_new!0@1#3| () (_ BitVec 32) |lib::1::ret_new!0@1#1|)

; find_symbols
(declare-fun |lib::1::ret_old!0@1#1| () (_ BitVec 32))
; set_to true (equal)
(define-fun |lib::1::ret_old!0@1#3| () (_ BitVec 32) |lib::1::ret_old!0@1#1|)

; set_to true
(assert (= |goto_symex::&92;guard#2| (not (bvsge |lib::n!0@1#1| (_ bv10 32)))))

; set_to true (equal)
(define-fun |lib::1::ret_old!0@1#4| () (_ BitVec 32) (_ bv1 32))

; set_to true (equal)
(define-fun |lib::1::ret_old!0@1#5| () (_ BitVec 32) |lib::1::ret_old!0@1#3|)

; set_to true
(assert (= |goto_symex::&92;guard#3| (not (bvsge |lib::n!0@1#1| (_ bv100 32)))))

; set_to true (equal)
(define-fun |lib::1::ret_old!0@1#6| () (_ BitVec 32) (_ bv2 32))

; set_to true (equal)
(define-fun |lib::1::ret_old!0@1#7| () (_ BitVec 32) |lib::1::ret_old!0@1#5|)

; set_to true
(assert (= |goto_symex::&92;guard#4| (not (bvsge |lib::n!0@1#1| (_ bv1000 32)))))

; set_to true (equal)
(define-fun |lib::1::ret_old!0@1#8| () (_ BitVec 32) (_ bv3 32))

; set_to true (equal)
(define-fun |lib::1::ret_old!0@1#9| () (_ BitVec 32) |lib::1::ret_old!0@1#7|)

; set_to true (equal)
(define-fun |lib::1::ret_old!0@1#10| () (_ BitVec 32) (_ bv4294967295 32))

; set_to true (equal)
(define-fun |lib::1::ret_old!0@1#11| () (_ BitVec 32) (ite |goto_symex::&92;guard#4| (_ bv3 32) (_ bv4294967295 32)))

; set_to true (equal)
(define-fun |lib::1::ret_old!0@1#12| () (_ BitVec 32) (ite |goto_symex::&92;guard#3| (_ bv2 32) |lib::1::ret_old!0@1#11|))

; set_to true (equal)
(define-fun |lib::1::ret_old!0@1#13| () (_ BitVec 32) (ite |goto_symex::&92;guard#2| (_ bv1 32) |lib::1::ret_old!0@1#12|))

; set_to true
(assert (= |goto_symex::&92;guard#5| (not (bvsge |lib::n!0@1#1| (_ bv11 32)))))

; set_to true (equal)
(define-fun |lib::1::ret_new!0@1#4| () (_ BitVec 32) (_ bv1 32))

; set_to true (equal)
(define-fun |lib::1::ret_new!0@1#5| () (_ BitVec 32) |lib::1::ret_new!0@1#3|)

; set_to true
(assert (= |goto_symex::&92;guard#6| (not (bvsge |lib::n!0@1#1| (_ bv101 32)))))

; set_to true (equal)
(define-fun |lib::1::ret_new!0@1#6| () (_ BitVec 32) (_ bv2 32))

; set_to true (equal)
(define-fun |lib::1::ret_new!0@1#7| () (_ BitVec 32) |lib::1::ret_new!0@1#5|)

; set_to true
(assert (= |goto_symex::&92;guard#7| (not (bvsge |lib::n!0@1#1| (_ bv1001 32)))))

; set_to true (equal)
(define-fun |lib::1::ret_new!0@1#8| () (_ BitVec 32) (_ bv3 32))

; set_to true (equal)
(define-fun |lib::1::ret_new!0@1#9| () (_ BitVec 32) |lib::1::ret_new!0@1#7|)

; set_to true (equal)
(define-fun |lib::1::ret_new!0@1#10| () (_ BitVec 32) (_ bv4294967295 32))

; set_to true (equal)
(define-fun |lib::1::ret_new!0@1#11| () (_ BitVec 32) (ite |goto_symex::&92;guard#7| (_ bv3 32) (_ bv4294967295 32)))

; set_to true (equal)
(define-fun |lib::1::ret_new!0@1#12| () (_ BitVec 32) (ite |goto_symex::&92;guard#6| (_ bv2 32) |lib::1::ret_new!0@1#11|))

; set_to true (equal)
(define-fun |lib::1::ret_new!0@1#13| () (_ BitVec 32) (ite |goto_symex::&92;guard#5| (_ bv1 32) |lib::1::ret_new!0@1#12|))

; set_to true (equal)
(define-fun |lib::1::ret_new!0@1#14| () (_ BitVec 32) (ite |goto_symex::&92;guard#1| (_ bv4294967295 32) |lib::1::ret_new!0@1#13|))

; set_to true (equal)
(define-fun |lib::1::ret_old!0@1#14| () (_ BitVec 32) (ite |goto_symex::&92;guard#1| (_ bv4294967295 32) |lib::1::ret_old!0@1#13|))

; find_symbols
(declare-fun |main::1::n!0@1#1| () (_ BitVec 32))
; convert
(define-fun |B23| () Bool (= |main::1::n!0@1#1| |main::1::n!0@1#1|))

; convert
(define-fun |B24| () Bool (= |lib::1::ret_old!0@1#1| |lib::1::ret_old!0@1#1|))

; convert
(define-fun |B25| () Bool (= |lib::1::ret_new!0@1#1| |lib::1::ret_new!0@1#1|))

; convert
(define-fun |B26| () Bool (not (bvsge |main::1::n!0@1#2| (_ bv1000 32))))

; set_to false
(assert (not (bvsge |main::1::n!0@1#2| (_ bv1000 32))))

; set_to false
(assert (not (= |lib::1::ret_old!0@1#14| |lib::1::ret_new!0@1#14|)))

; convert
(define-fun |B27| () Bool (bvsge |lib::n!0@1#1| (_ bv0 32)))

; convert
(define-fun |B28| () Bool (bvsge |lib::n!0@1#1| (_ bv10 32)))

; convert
(define-fun |B29| () Bool (bvsge |lib::n!0@1#1| (_ bv100 32)))

; convert
(define-fun |B30| () Bool (bvsge |lib::n!0@1#1| (_ bv1000 32)))

; convert
(define-fun |B31| () Bool (bvsge |lib::n!0@1#1| (_ bv11 32)))

; convert
(define-fun |B32| () Bool (bvsge |lib::n!0@1#1| (_ bv101 32)))

; convert
(define-fun |B33| () Bool (bvsge |lib::n!0@1#1| (_ bv1001 32)))

(check-sat)

(get-value (|B0|))
(get-value (|B1|))
(get-value (|B10|))
(get-value (|B11|))
(get-value (|B12|))
(get-value (|B13|))
(get-value (|B14|))
(get-value (|B15|))
(get-value (|B16|))
(get-value (|B17|))
(get-value (|B18|))
(get-value (|B19|))
(get-value (|B2|))
(get-value (|B20|))
(get-value (|B21|))
(get-value (|B22|))
(get-value (|B23|))
(get-value (|B24|))
(get-value (|B25|))
(get-value (|B26|))
(get-value (|B27|))
(get-value (|B28|))
(get-value (|B29|))
(get-value (|B3|))
(get-value (|B30|))
(get-value (|B31|))
(get-value (|B32|))
(get-value (|B33|))
(get-value (|B4|))
(get-value (|B5|))
(get-value (|B6|))
(get-value (|B7|))
(get-value (|B8|))
(get-value (|B9|))
(get-value (|__CPROVER_dead_object#1|))
(get-value (|__CPROVER_deallocated#1|))
(get-value (|__CPROVER_malloc_is_new_array#1|))
(get-value (|__CPROVER_malloc_object#1|))
(get-value (|__CPROVER_malloc_size#1|))
(get-value (|__CPROVER_memory_leak#1|))
(get-value (|__CPROVER_next_thread_id#1|))
(get-value (|__CPROVER_pipe_count#1|))
(get-value (|__CPROVER_rounding_mode!0#1|))
(get-value (|__CPROVER_thread_id!0#1|))
(get-value (|__CPROVER_threads_exited#1|))
(get-value (|goto_symex::&92;guard#1|))
(get-value (|goto_symex::&92;guard#2|))
(get-value (|goto_symex::&92;guard#3|))
(get-value (|goto_symex::&92;guard#4|))
(get-value (|goto_symex::&92;guard#5|))
(get-value (|goto_symex::&92;guard#6|))
(get-value (|goto_symex::&92;guard#7|))
(get-value (|lib::1::ret_new!0@1#1|))
(get-value (|lib::1::ret_new!0@1#10|))
(get-value (|lib::1::ret_new!0@1#11|))
(get-value (|lib::1::ret_new!0@1#12|))
(get-value (|lib::1::ret_new!0@1#13|))
(get-value (|lib::1::ret_new!0@1#14|))
(get-value (|lib::1::ret_new!0@1#2|))
(get-value (|lib::1::ret_new!0@1#3|))
(get-value (|lib::1::ret_new!0@1#4|))
(get-value (|lib::1::ret_new!0@1#5|))
(get-value (|lib::1::ret_new!0@1#6|))
(get-value (|lib::1::ret_new!0@1#7|))
(get-value (|lib::1::ret_new!0@1#8|))
(get-value (|lib::1::ret_new!0@1#9|))
(get-value (|lib::1::ret_old!0@1#1|))
(get-value (|lib::1::ret_old!0@1#10|))
(get-value (|lib::1::ret_old!0@1#11|))
(get-value (|lib::1::ret_old!0@1#12|))
(get-value (|lib::1::ret_old!0@1#13|))
(get-value (|lib::1::ret_old!0@1#14|))
(get-value (|lib::1::ret_old!0@1#2|))
(get-value (|lib::1::ret_old!0@1#3|))
(get-value (|lib::1::ret_old!0@1#4|))
(get-value (|lib::1::ret_old!0@1#5|))
(get-value (|lib::1::ret_old!0@1#6|))
(get-value (|lib::1::ret_old!0@1#7|))
(get-value (|lib::1::ret_old!0@1#8|))
(get-value (|lib::1::ret_old!0@1#9|))
(get-value (|lib::n!0@1#1|))
(get-value (|main::1::n!0@1#1|))
(get-value (|main::1::n!0@1#2|))
(get-value (|nondet_symex::nondet0|))

(exit)
; end of SMT2 file
